5959
0 1 1 0 0 1 0 0 1 0 1 0 0 0 0 1 0 0 0 0 0 0 0 0 0 0 1 0 1 0
10 10 10 10 10 10 10 1 1 1 1 1 15 15 1 2 2 2 2 2 2 5 5 5 5 5 5 8 8 8 8 8 10 10 10 2 2 5 2 28 28 15 15 28 26 26 26 26 26 28 10 26 26 1 2 26 26 28 26 26 15 15 28 28 26 26 26 26 15 28
